WARNING: for repeatability, setting FPU to use double precision
============================[ Problem Statistics ]=============================
|                                                                             |
|  Number of variables:           760                                         |
|  Number of clauses:           43649                                         |
|  Parse time:                   0.00 s                                       |
|                                                                             |
c ============================[ Search Statistics ]==============================
c | Conflicts |          ORIGINAL         |          LEARNT          | Progress |
c |           |    Vars  Clauses Literals |    Limit  Clauses Lit/Cl |          |
c ===============================================================================
We had 81 decisions of which only 0 were on extended
We had 75938 decisions of which only 0 were on extended
We had 104649 decisions of which only 0 were on extended
We had 127687 decisions of which only 0 were on extended
We had 153145 decisions of which only 0 were on extended
We had 176833 decisions of which only 0.00226202 were on extended
We had 191086 decisions of which only 0.0020933 were on extended
We had 204691 decisions of which only 0.00195417 were on extended
We had 217886 decisions of which only 0.00183582 were on extended
We had 231036 decisions of which only 0.00173133 were on extended
We had 243495 decisions of which only 0.00164274 were on extended
We had 255761 decisions of which only 0.00156396 were on extended
We had 268406 decisions of which only 0.00149028 were on extended
We had 281017 decisions of which only 0.0014234 were on extended
We had 293744 decisions of which only 0.00136173 were on extended
We had 306313 decisions of which only 0.00130585 were on extended
We had 318534 decisions of which only 0.00125575 were on extended
We had 331337 decisions of which only 0.00120723 were on extended
We had 343766 decisions of which only 0.00116358 were on extended
Window full
Continue
We had 356343 decisions of which only 0.00112251 were on extended
We had 368330 decisions of which only 0.00108598 were on extended
We had 379935 decisions of which only 0.00105281 were on extended
We had 391502 decisions of which only 0.00102171 were on extended
We had 403429 decisions of which only 0.0009915 were on extended
We had 415299 decisions of which only 0.000963161 were on extended
We had 427609 decisions of which only 0.000935434 were on extended
We had 439811 decisions of which only 0.000909482 were on extended
We had 452086 decisions of which only 0.000884787 were on extended
We had 463984 decisions of which only 0.000862099 were on extended
Window full
Deactivate
We had 475731 decisions of which only 0.000840811 were on extended
We had 487591 decisions of which only 0.00082036 were on extended
We had 499451 decisions of which only 0.000800879 were on extended
We had 511200 decisions of which only 0.000782473 were on extended
We had 522740 decisions of which only 0.000765199 were on extended
We had 534169 decisions of which only 0.000748827 were on extended
We had 546225 decisions of which only 0.000732299 were on extended
We had 558373 decisions of which only 0.000716367 were on extended
We had 570462 decisions of which only 0.000701186 were on extended
We had 582442 decisions of which only 0.000686764 were on extended
c Switched to VSIDS.
We had 594756 decisions of which only 0.000672545 were on extended
We had 608370 decisions of which only 0.000657495 were on extended
We had 622577 decisions of which only 0.000642491 were on extended
We had 637035 decisions of which only 0.000627909 were on extended
We had 650592 decisions of which only 0.000614825 were on extended
We had 663874 decisions of which only 0.000602524 were on extended
We had 677414 decisions of which only 0.000590481 were on extended
We had 690774 decisions of which only 0.000579061 were on extended
We had 703563 decisions of which only 0.000568535 were on extended
We had 717026 decisions of which only 0.00055786 were on extended
We had 730828 decisions of which only 0.000547324 were on extended
We had 743795 decisions of which only 0.000537783 were on extended
We had 757142 decisions of which only 0.000528302 were on extended
We had 770885 decisions of which only 0.000518884 were on extended
We had 784493 decisions of which only 0.000509883 were on extended
We had 797733 decisions of which only 0.000501421 were on extended
We had 810952 decisions of which only 0.000493247 were on extended
We had 824005 decisions of which only 0.000485434 were on extended
We had 837572 decisions of which only 0.000477571 were on extended
We had 850400 decisions of which only 0.000470367 were on extended
We had 863997 decisions of which only 0.000462965 were on extended
We had 877666 decisions of which only 0.000455754 were on extended
We had 890701 decisions of which only 0.000449084 were on extended
We had 903656 decisions of which only 0.000442646 were on extended
We had 917122 decisions of which only 0.000436147 were on extended
We had 930171 decisions of which only 0.000430028 were on extended
We had 943506 decisions of which only 0.000423951 were on extended
We had 957114 decisions of which only 0.000417923 were on extended
We had 970445 decisions of which only 0.000412182 were on extended
We had 984170 decisions of which only 0.000406434 were on extended
We had 997768 decisions of which only 0.000400895 were on extended
We had 1010926 decisions of which only 0.000395677 were on extended
We had 1024582 decisions of which only 0.000390403 were on extended
We had 1038317 decisions of which only 0.000385239 were on extended
We had 1052430 decisions of which only 0.000380073 were on extended
We had 1065279 decisions of which only 0.000375488 were on extended
We had 1078723 decisions of which only 0.000370809 were on extended
We had 1091751 decisions of which only 0.000366384 were on extended
c Switched to LRB.
We had 1105076 decisions of which only 0.000452458 were on extended
We had 1117092 decisions of which only 0.000447591 were on extended
We had 1128953 decisions of which only 0.000442888 were on extended
We had 1140985 decisions of which only 0.000438218 were on extended
We had 1152505 decisions of which only 0.000433838 were on extended
We had 1164012 decisions of which only 0.000429549 were on extended
We had 1175552 decisions of which only 0.000425332 were on extended
We had 1187143 decisions of which only 0.000421179 were on extended
We had 1198778 decisions of which only 0.000417091 were on extended
We had 1210259 decisions of which only 0.000413135 were on extended
We had 1221730 decisions of which only 0.000409256 were on extended
We had 1233011 decisions of which only 0.000405511 were on extended
We had 1244540 decisions of which only 0.000401755 were on extended
We had 1255774 decisions of which only 0.000398161 were on extended
We had 1267532 decisions of which only 0.000394467 were on extended
We had 1279323 decisions of which only 0.000390832 were on extended
We had 1291407 decisions of which only 0.000387175 were on extended
We had 1303242 decisions of which only 0.000383659 were on extended
We had 1314948 decisions of which only 0.000380243 were on extended
We had 1327016 decisions of which only 0.000376785 were on extended
We had 1338763 decisions of which only 0.000373479 were on extended
We had 1350728 decisions of which only 0.000370171 were on extended
We had 1362632 decisions of which only 0.000366937 were on extended
We had 1374210 decisions of which only 0.000363845 were on extended
We had 1386084 decisions of which only 0.000360728 were on extended
We had 1398537 decisions of which only 0.000357516 were on extended
c ===============================================================================
restarts                  : 2457
conflicts                 : 1028964        (3122 /sec)
decisions                 : 1408900        (0.00 % random) (4275 /sec)
propagations              : 85877868       (260580 /sec)
conflict literals         : 81196371       (44.55 % deleted)

conflicts w/ DIP found    : 168870         (16.41 % of conflicts)
conflicts w/ dangerous DIP: 0              (0.00 % of conflicts)
conflicts w/ DIP-learning : 1              (0.00 % of conflicts)
decisions on ext vars     : 5              (0.00 % of decisions)
total ext vars            : 1           
tried delete ext vars     : 0           
deleted ext vars          : 0           
max ext vars              : 1           

Memory used               : 124.00 MB
CPU time                  : 329.565 s
DIP computation time      : 1.93158 s (0.59 % of total time)
ER_sel time               : 1.36365 s
ER_add time               : 7.5e-05 s
ER_delC time              : 0 s
ER_delV time              : 0 s
ER_sub time               : 0.398956 s
ER_stat time              : 0 s

SATISFIABLE
